(set-info :origin "SVCOMP13 benchmarks generated by Arie Gurfinkel")
(set-info :status sat)
(set-logic HORN)
(declare-fun cp-rel-entry () Bool)
(declare-fun cp-rel-bb1.i.i34.i.i () Bool)
(declare-fun cp-rel-bb1.i.i (Real Real Real Real) Bool)
(assert |cp-rel-entry|)
(assert (forall ((?A Real) (?B Real) (?C Real) (?D Real) (?E Bool) )(let (($x215578 (and |cp-rel-entry| (<= ?D 0.0) (>= ?C 1.0) (<= ?C 1.0) (>= ?B 1.0) (<= ?B 1.0) (>= ?A 0.0) (<= ?A 0.0) (= ?E true) (>= ?D 0.0))))
(=> $x215578 (|cp-rel-bb1.i.i| ?A ?B ?C ?D))))
)
(assert (forall ((?A Real) (?B Real) (?C Real) (?D Real) (?E Real) (?F Real) (?G Real) (?H Real) (?I Bool) (?J Bool) (?K Bool) (?L Bool) (?M Bool) (?N Bool) (?O Real) (?P Real) (?Q Bool) (?R Bool) (?S Bool) (?T Bool) (?U Bool) (?V Bool) (?W Real) (?X Real) (?Y Bool) (?Z Bool) (?A1 Bool) (?B1 Bool) (?C1 Bool) (?D1 Bool) (?E1 Bool) (?F1 Real) (?G1 Bool) (?H1 Bool) (?I1 Bool) (?J1 Bool) (?K1 Bool) (?L1 Bool) (?M1 Real) (?N1 Real) (?O1 Bool) (?P1 Bool) (?Q1 Bool) (?R1 Bool) (?S1 Bool) (?T1 Bool) (?U1 Bool) (?V1 Bool) (?W1 Bool) (?X1 Bool) (?Y1 Bool) (?Z1 Bool) (?A2 Bool) (?B2 Bool) (?C2 Bool) (?D2 Bool) (?E2 Real) (?F2 Real) (?G2 Real) (?H2 Real) (?I2 Bool) (?J2 Bool) (?K2 Bool) (?L2 Bool) (?M2 Bool) (?N2 Bool) (?O2 Real) (?P2 Bool) (?Q2 Real) (?R2 Real) (?S2 Bool) (?T2 Real) (?U2 Real) (?V2 Bool) (?W2 Real) (?X2 Bool) (?Y2 Bool) (?Z2 Bool) )(let (($x144834 (|cp-rel-bb1.i.i| ?E ?F ?G ?H)))
(let (($x279103 (= ?N2 (or ?Z2 ?Y2))))
(let (($x424267 (or (not ?I) (and ?J ?K (not ?L)))))
(let (($x265497 (or (not ?I) ?K)))
(let (($x856971 (not ?M)))
(let (($x864207 (or $x856971 (and ?I ?N (<= ?O ?P) (>= ?O ?P)) (and ?J ?Q ?L (<= ?O ?B) (>= ?O ?B)))))
(let (($x521186 (or $x856971 (and ?N (not ?Q)) (and ?Q (not ?N)))))
(let (($x612021 (or (not ?R) (and ?M ?S (not ?T)))))
(let (($x287889 (or (not ?R) ?S)))
(let (($x577754 (not ?U)))
(let (($x418842 (or $x577754 (and ?R ?V (<= ?W ?X) (>= ?W ?X)) (and ?M ?Y ?T (<= ?W ?A) (>= ?W ?A)))))
(let (($x246929 (or $x577754 (and ?V (not ?Y)) (and ?Y (not ?V)))))
(let (($x356934 (or (not ?Z) (and ?U ?A1 ?B1))))
(let (($x302903 (or (not ?Z) ?A1)))
(let (($x249651 (not ?C1)))
(let (($x394226 (or $x249651 (and ?Z ?D1 ?E1 (<= ?F1 ?C) (>= ?F1 ?C)) (and ?U ?G1 (not ?B1) (<= ?F1 1.0) (>= ?F1 1.0)))))
(let (($x242597 (or $x249651 (and ?D1 (not ?G1)) (and ?G1 (not ?D1)))))
(let (($x298485 (or (not ?H1) (and ?C1 ?I1 (not ?J1)))))
(let (($x209825 (or (not ?H1) ?I1)))
(let (($x205924 (or (not ?K1) (and ?H1 ?L1 (<= ?M1 ?N1) (>= ?M1 ?N1)) (and ?C1 ?O1 ?J1 (<= ?M1 ?O) (>= ?M1 ?O)))))
(let (($x244912 (or (not ?K1) (and ?L1 (not ?O1)) (and ?O1 (not ?L1)))))
(let (($x288477 (or (not ?P1) (and ?K1 ?Q1 (not ?R1)))))
(let (($x99229 (or (not ?P1) ?Q1)))
(let (($x800444 (or (not ?S1) (and ?P1 ?T1 ?J1))))
(let (($x295759 (or (not ?S1) ?T1)))
(let (($x538979 (or (not ?U1) (and ?P1 ?V1 (not ?J1)))))
(let (($x55163 (or (not ?U1) ?V1)))
(let (($x99153 (or (not ?W1) (and ?S1 ?X1 ?Y1))))
(let (($x454143 (or (not ?W1) ?X1)))
(let (($x157761 (or (not ?Z1) (and ?U1 ?A2 ?B2))))
(let (($x846960 (or (not ?Z1) ?A2)))
(let (($x273815 (and ?Z ?M2 (not ?E1) (<= ?E2 0.0) (>= ?E2 0.0) (<= ?F2 ?O) (>= ?F2 ?O) (<= ?G2 0.0) (>= ?G2 0.0))))
(let (($x213270 (>= ?G2 ?D)))
(let (($x567550 (<= ?G2 ?D)))
(let (($x210083 (>= ?F2 ?M1)))
(let (($x144090 (<= ?F2 ?M1)))
(let (($x865308 (>= ?E2 ?F1)))
(let (($x210149 (<= ?E2 ?F1)))
(let (($x344947 (and ?U1 ?K2 (not ?B2) $x210149 $x865308 $x144090 $x210083 (<= ?G2 0.0) (>= ?G2 0.0))))
(let (($x275754 (not ?C2)))
(let (($x464751 (or $x275754 (and ?W1 ?D2 $x210149 $x865308 $x144090 $x210083 (<= ?G2 ?H2) (>= ?G2 ?H2)) (and ?S1 ?I2 (not ?Y1) $x210149 $x865308 $x144090 $x210083 $x567550 $x213270) (and ?Z1 ?J2 $x210149 $x865308 $x144090 $x210083 $x567550 $x213270) $x344947 (and ?K1 ?L2 ?R1 $x210149 $x865308 $x144090 $x210083 $x567550 $x213270) $x273815)))
(let (($x229076 (or $x275754 (and ?D2 (not ?I2) (not ?J2) (not ?K2) (not ?L2) (not ?M2)) (and ?I2 (not ?D2) (not ?J2) (not ?K2) (not ?L2) (not ?M2)) (and ?J2 (not ?D2) (not ?I2) (not ?K2) (not ?L2) (not ?M2)) (and ?K2 (not ?D2) (not ?I2) (not ?J2) (not ?L2) (not ?M2)) (and ?L2 (not ?D2) (not ?I2) (not ?J2) (not ?K2) (not ?M2)) (and ?M2 (not ?D2) (not ?I2) (not ?J2) (not ?K2) (not ?L2)))))
(let (($x364524 (= ?C2 true)))
(let (($x506818 (= ?N2 true)))
(let (($x585156 (= ?L (= ?O2 0.0))))
(let (($x43237 (= ?Q2 (ite ?P2 1.0 0.0))))
(let (($x79628 (= ?T (= ?R2 0.0))))
(let (($x235075 (= ?X (ite ?S2 1.0 0.0))))
(let (($x409280 (= ?B1 (= ?T2 0.0))))
(let (($x197986 (= ?E1 (= ?U2 0.0))))
(let (($x325477 (= ?V2 (not (<= ?O 0.0)))))
(let (($x887053 (= ?W2 (+ (~ 1.0) ?O))))
(let (($x874111 (= ?N1 (ite ?V2 ?W2 ?O))))
(let (($x267482 (= ?R1 (= ?F1 0.0))))
(let (($x797448 (= ?Y1 (not (<= ?M1 1.0)))))
(let (($x572795 (= ?B2 (= ?M1 0.0))))
(let (($x435387 (= ?X2 (= ?W 0.0))))
(let (($x508329 (= ?Y2 (not (= ?F2 0.0)))))
(let (($x63742 (= ?Z2 (= ?G2 0.0))))
(let (($x238740 (and (|cp-rel-bb1.i.i| ?A ?B ?C ?D) $x63742 $x508329 (= ?H2 (ite ?X2 1.0 ?D)) $x435387 $x572795 $x797448 $x267482 $x874111 $x887053 $x325477 (= ?J1 (= ?D 0.0)) $x197986 $x409280 $x235075 (= ?S2 (= ?A 0.0)) $x79628 (= ?P (+ ?Q2 ?B)) $x43237 (= ?P2 (not (<= 2.0 ?B))) $x585156 (>= ?H ?G2) (<= ?H ?G2) (>= ?G ?E2) (<= ?G ?E2) (>= ?F ?F2) (<= ?F ?F2) (>= ?E ?W) (<= ?E ?W) $x506818 $x364524 $x229076 $x464751 $x846960 $x157761 $x454143 $x99153 $x55163 $x538979 $x295759 $x800444 $x99229 $x288477 $x244912 $x205924 $x209825 $x298485 $x242597 $x394226 $x302903 $x356934 $x246929 $x418842 $x287889 $x612021 $x521186 $x864207 $x265497 $x424267 $x279103)))
(=> $x238740 $x144834))))))))))))))))))))))))))))))))))))))))))))))))))))))))))))))
)
(assert (forall ((?A Real) (?B Real) (?C Real) (?D Real) (?E Bool) (?F Bool) (?G Bool) (?H Bool) (?I Bool) (?J Bool) (?K Real) (?L Real) (?M Bool) (?N Bool) (?O Bool) (?P Bool) (?Q Bool) (?R Bool) (?S Real) (?T Real) (?U Bool) (?V Bool) (?W Bool) (?X Bool) (?Y Bool) (?Z Bool) (?A1 Bool) (?B1 Real) (?C1 Bool) (?D1 Bool) (?E1 Bool) (?F1 Bool) (?G1 Bool) (?H1 Bool) (?I1 Real) (?J1 Real) (?K1 Bool) (?L1 Bool) (?M1 Bool) (?N1 Bool) (?O1 Bool) (?P1 Bool) (?Q1 Bool) (?R1 Bool) (?S1 Bool) (?T1 Bool) (?U1 Bool) (?V1 Bool) (?W1 Bool) (?X1 Bool) (?Y1 Bool) (?Z1 Bool) (?A2 Real) (?B2 Real) (?C2 Real) (?D2 Real) (?E2 Bool) (?F2 Bool) (?G2 Bool) (?H2 Bool) (?I2 Bool) (?J2 Bool) (?K2 Real) (?L2 Bool) (?M2 Real) (?N2 Real) (?O2 Bool) (?P2 Real) (?Q2 Real) (?R2 Bool) (?S2 Real) (?T2 Bool) (?U2 Bool) (?V2 Bool) )(let (($x279103 (= ?J2 (or ?V2 ?U2))))
(let (($x424267 (or (not ?E) (and ?F ?G (not ?H)))))
(let (($x265497 (or (not ?E) ?G)))
(let (($x856971 (not ?I)))
(let (($x464251 (or $x856971 (and ?E ?J (<= ?K ?L) (>= ?K ?L)) (and ?F ?M ?H (<= ?K ?B) (>= ?K ?B)))))
(let (($x521186 (or $x856971 (and ?J (not ?M)) (and ?M (not ?J)))))
(let (($x612021 (or (not ?N) (and ?I ?O (not ?P)))))
(let (($x287889 (or (not ?N) ?O)))
(let (($x577754 (not ?Q)))
(let (($x293481 (or $x577754 (and ?N ?R (<= ?S ?T) (>= ?S ?T)) (and ?I ?U ?P (<= ?S ?A) (>= ?S ?A)))))
(let (($x246929 (or $x577754 (and ?R (not ?U)) (and ?U (not ?R)))))
(let (($x356934 (or (not ?V) (and ?Q ?W ?X))))
(let (($x302903 (or (not ?V) ?W)))
(let (($x249651 (not ?Y)))
(let (($x355730 (or $x249651 (and ?V ?Z ?A1 (<= ?B1 ?C) (>= ?B1 ?C)) (and ?Q ?C1 (not ?X) (<= ?B1 1.0) (>= ?B1 1.0)))))
(let (($x242597 (or $x249651 (and ?Z (not ?C1)) (and ?C1 (not ?Z)))))
(let (($x298485 (or (not ?D1) (and ?Y ?E1 (not ?F1)))))
(let (($x209825 (or (not ?D1) ?E1)))
(let (($x205924 (or (not ?G1) (and ?D1 ?H1 (<= ?I1 ?J1) (>= ?I1 ?J1)) (and ?Y ?K1 ?F1 (<= ?I1 ?K) (>= ?I1 ?K)))))
(let (($x244912 (or (not ?G1) (and ?H1 (not ?K1)) (and ?K1 (not ?H1)))))
(let (($x288477 (or (not ?L1) (and ?G1 ?M1 (not ?N1)))))
(let (($x99229 (or (not ?L1) ?M1)))
(let (($x800444 (or (not ?O1) (and ?L1 ?P1 ?F1))))
(let (($x295759 (or (not ?O1) ?P1)))
(let (($x538979 (or (not ?Q1) (and ?L1 ?R1 (not ?F1)))))
(let (($x55163 (or (not ?Q1) ?R1)))
(let (($x99153 (or (not ?S1) (and ?O1 ?T1 ?U1))))
(let (($x454143 (or (not ?S1) ?T1)))
(let (($x157761 (or (not ?V1) (and ?Q1 ?W1 ?X1))))
(let (($x846960 (or (not ?V1) ?W1)))
(let (($x273815 (and ?V ?I2 (not ?A1) (<= ?A2 0.0) (>= ?A2 0.0) (<= ?B2 ?K) (>= ?B2 ?K) (<= ?C2 0.0) (>= ?C2 0.0))))
(let (($x861216 (>= ?C2 ?D)))
(let (($x2982 (<= ?C2 ?D)))
(let (($x210083 (>= ?B2 ?I1)))
(let (($x144090 (<= ?B2 ?I1)))
(let (($x865308 (>= ?A2 ?B1)))
(let (($x210149 (<= ?A2 ?B1)))
(let (($x344947 (and ?Q1 ?G2 (not ?X1) $x210149 $x865308 $x144090 $x210083 (<= ?C2 0.0) (>= ?C2 0.0))))
(let (($x275754 (not ?Y1)))
(let (($x146995 (or $x275754 (and ?S1 ?Z1 $x210149 $x865308 $x144090 $x210083 (<= ?C2 ?D2) (>= ?C2 ?D2)) (and ?O1 ?E2 (not ?U1) $x210149 $x865308 $x144090 $x210083 $x2982 $x861216) (and ?V1 ?F2 $x210149 $x865308 $x144090 $x210083 $x2982 $x861216) $x344947 (and ?G1 ?H2 ?N1 $x210149 $x865308 $x144090 $x210083 $x2982 $x861216) $x273815)))
(let (($x229076 (or $x275754 (and ?Z1 (not ?E2) (not ?F2) (not ?G2) (not ?H2) (not ?I2)) (and ?E2 (not ?Z1) (not ?F2) (not ?G2) (not ?H2) (not ?I2)) (and ?F2 (not ?Z1) (not ?E2) (not ?G2) (not ?H2) (not ?I2)) (and ?G2 (not ?Z1) (not ?E2) (not ?F2) (not ?H2) (not ?I2)) (and ?H2 (not ?Z1) (not ?E2) (not ?F2) (not ?G2) (not ?I2)) (and ?I2 (not ?Z1) (not ?E2) (not ?F2) (not ?G2) (not ?H2)))))
(let (($x364524 (= ?Y1 true)))
(let (($x585156 (= ?H (= ?K2 0.0))))
(let (($x43237 (= ?M2 (ite ?L2 1.0 0.0))))
(let (($x79628 (= ?P (= ?N2 0.0))))
(let (($x235075 (= ?T (ite ?O2 1.0 0.0))))
(let (($x409280 (= ?X (= ?P2 0.0))))
(let (($x197986 (= ?A1 (= ?Q2 0.0))))
(let (($x325477 (= ?R2 (not (<= ?K 0.0)))))
(let (($x887053 (= ?S2 (+ (~ 1.0) ?K))))
(let (($x874111 (= ?J1 (ite ?R2 ?S2 ?K))))
(let (($x267482 (= ?N1 (= ?B1 0.0))))
(let (($x797448 (= ?U1 (not (<= ?I1 1.0)))))
(let (($x572795 (= ?X1 (= ?I1 0.0))))
(let (($x435387 (= ?T2 (= ?S 0.0))))
(let (($x508329 (= ?U2 (not (= ?B2 0.0)))))
(let (($x63742 (= ?V2 (= ?C2 0.0))))
(let (($x144834 (|cp-rel-bb1.i.i| ?A ?B ?C ?D)))
(let (($x481512 (and $x144834 $x63742 $x508329 (= ?D2 (ite ?T2 1.0 ?D)) $x435387 $x572795 $x797448 $x267482 $x874111 $x887053 $x325477 (= ?F1 (= ?D 0.0)) $x197986 $x409280 $x235075 (= ?O2 (= ?A 0.0)) $x79628 (= ?L (+ ?M2 ?B)) $x43237 (= ?L2 (not (<= 2.0 ?B))) $x585156 (not (= ?J2 true)) $x364524 $x229076 $x146995 $x846960 $x157761 $x454143 $x99153 $x55163 $x538979 $x295759 $x800444 $x99229 $x288477 $x244912 $x205924 $x209825 $x298485 $x242597 $x355730 $x302903 $x356934 $x246929 $x293481 $x287889 $x612021 $x521186 $x464251 $x265497 $x424267 $x279103)))
(=> $x481512 |cp-rel-bb1.i.i34.i.i|)))))))))))))))))))))))))))))))))))))))))))))))))))))))))))))
)
(assert (not cp-rel-bb1.i.i34.i.i))
(check-sat)
